
Log started (V11.0.0) Sun Apr 13 13:18:20 2008

Tried aggregator 1 time.
Reduced MIP has 210 rows, 2001 columns, and 4010 nonzeros.
Presolve time =    0.02 sec.
Clique table members: 200.
MIP emphasis: balance optimality and feasibility.
MIP search method: dynamic search.
Parallel mode: none, using 1 thread.
Root relaxation solution time =    0.03 sec.

        Nodes                                         Cuts/
   Node  Left     Objective  IInf  Best Integer     Best Node    ItCnt     Gap

*     0+    0                        10869.0000      202.1063      298   98.14%
*     0+    0                          212.0000      202.1063      298    4.67%
      0     0      203.0000    16      212.0000     Fract: 10      310    4.25%
*     0+    0                          211.0000      203.0000      310    3.79%
      0     0      203.0000    16      211.0000     Covers: 2      316    3.79%
      0     0      203.0000    20      211.0000     Covers: 2      332    3.79%
*     0+    0                          210.0000      203.0000      332    3.33%
*     0+    0                          209.0000      203.0000      332    2.87%
*     0+    0                          208.0000      203.0000      332    2.40%
*     0+    0                          206.0000      203.0000      332    1.46%

Repeating presolve.
Tried aggregator 1 time.
MIP Presolve eliminated 4 rows and 1183 columns.
Aggregator did 22 substitutions.
Reduced MIP has 184 rows, 796 columns, and 1600 nonzeros.
Tried aggregator 1 time.
Represolve time =    0.03 sec.
Clique table members: 174.
MIP emphasis: balance optimality and feasibility.
MIP search method: dynamic search.
Parallel mode: none, using 1 thread.
Root relaxation solution time =    0.02 sec.

        Nodes                                         Cuts/
   Node  Left     Objective  IInf  Best Integer     Best Node    ItCnt     Gap

      0     0      203.0000    22      206.0000      203.0000      184    1.46%
      0     2      203.0000    22      206.0000      203.0000      184    1.46%
    100    77      203.0000    24      206.0000      203.0000     1868    1.46%
    200   148      205.0000    19      206.0000      203.0000     4544    1.46%
    300   200      204.0000    33      206.0000      203.0000     8229    1.46%
    400   275      204.0000    25      206.0000      203.0000    12682    1.46%
    500   331      204.0000    18      206.0000      203.0000    17192    1.46%
    600   300      203.0000    31      206.0000      203.0000    20868    1.46%
    700   305      204.0000    17      206.0000      203.0000    23736    1.46%
    800   313      205.0000    18      206.0000      203.0000    26400    1.46%
    900   327      204.0000    25      206.0000      203.0000    29432    1.46%
   1000   362      204.2763    36      206.0000      203.0000    33418    1.46%
Elapsed time =   6.75 sec. (tree size =  0.16 MB, solutions = 7)
   1100   448      205.0000    18      206.0000      203.0000    36780    1.46%
   1200   518      205.0000    21      206.0000      203.0000    40463    1.46%
   1300   600      204.0000    15      206.0000      203.0000    44153    1.46%
   1400   681      204.0000    40      206.0000      203.0000    47226    1.46%
   1500   764      204.0000    28      206.0000      203.0000    50627    1.46%
   1600   817      204.0000    23      206.0000      203.0000    54924    1.46%
   1700   907      204.0000    28      206.0000      203.0000    56905    1.46%
   1800   998      205.0000    21      206.0000      203.0000    60198    1.46%
*  1824+  688                          205.0000      203.0000    61224    0.98%
   1900   742      203.0000    40      205.0000      203.0000    64128    0.98%
   2000   829      204.0000    10      205.0000      203.0000    66982    0.98%
Elapsed time =  11.48 sec. (tree size =  0.37 MB, solutions = 8)
   2100   903      204.0000    32      205.0000      203.0000    69951    0.98%
   2200   973      204.0000    17      205.0000      203.0000    73196    0.98%
   2300  1053      203.0000    43      205.0000      203.0000    77437    0.98%
   2400  1135      204.0000    15      205.0000      203.0000    81125    0.98%
*  2484+  164                          204.0000      203.0000    85657    0.49%
   2500   157      203.0000    30      204.0000      203.0000    89274    0.49%
   2600   187      203.0000    59      204.0000      203.0000   102578    0.49%
   2700   158    infeasible            204.0000      203.0000   127233    0.49%
   2800    88    infeasible            204.0000      203.0000   157334    0.49%
   2900     6    infeasible            204.0000      203.0000   184270    0.49%

Cover cuts applied:  455
Mixed integer rounding cuts applied:  25
Zero-half cuts applied:  2
Gomory fractional cuts applied:  9

Solution pool: 9 solutions saved.

MIP - Integer optimal solution:  Objective = 2.0400000000e+002
Solution time =   28.77 sec.  Iterations = 185265  Nodes = 2907


Incumbent solution
Variable Name           Solution Value
Cmax                        204.000000
X_1_6                         1.000000
X_2_10                        1.000000
X_3_7                         1.000000
X_4_6                         1.000000
X_5_10                        1.000000
X_6_4                         1.000000
X_7_2                         1.000000
X_8_10                        1.000000
X_9_7                         1.000000
X_10_3                        1.000000
X_11_10                       1.000000
X_12_8                        1.000000
X_13_4                        1.000000
X_14_9                        1.000000
X_15_2                        1.000000
X_16_5                        1.000000
X_17_9                        1.000000
X_18_4                        1.000000
X_19_5                        1.000000
X_20_6                        1.000000
X_21_1                        1.000000
X_22_5                        1.000000
X_23_2                        1.000000
X_24_9                        1.000000
X_25_1                        1.000000
X_26_8                        1.000000
X_27_6                        1.000000
X_28_10                       1.000000
X_29_3                        1.000000
X_30_8                        1.000000
X_31_3                        1.000000
X_32_7                        1.000000
X_33_8                        1.000000
X_34_5                        1.000000
X_35_7                        1.000000
X_36_1                        1.000000
X_37_1                        1.000000
X_38_8                        1.000000
X_39_4                        1.000000
X_40_2                        1.000000
X_41_9                        1.000000
X_42_3                        1.000000
X_43_8                        1.000000
X_44_9                        1.000000
X_45_3                        1.000000
X_46_9                        1.000000
X_47_9                        1.000000
X_48_9                        1.000000
X_49_1                        1.000000
X_50_8                        1.000000
X_51_7                        1.000000
X_52_10                       1.000000
X_53_5                        1.000000
X_54_8                        1.000000
X_55_4                        1.000000
X_56_2                        1.000000
X_57_3                        1.000000
X_58_4                        1.000000
X_59_8                        1.000000
X_60_10                       1.000000
X_61_1                        1.000000
X_62_3                        1.000000
X_63_10                       1.000000
X_64_8                        1.000000
X_65_6                        1.000000
X_66_5                        1.000000
X_67_9                        1.000000
X_68_1                        1.000000
X_69_1                        1.000000
X_70_3                        1.000000
X_71_4                        1.000000
X_72_3                        1.000000
X_73_10                       1.000000
X_74_6                        1.000000
X_75_2                        1.000000
X_76_6                        1.000000
X_77_3                        1.000000
X_78_2                        1.000000
X_79_1                        1.000000
X_80_4                        1.000000
X_81_2                        1.000000
X_82_2                        1.000000
X_83_2                        1.000000
X_84_1                        1.000000
X_85_2                        1.000000
X_86_10                       1.000000
X_87_7                        1.000000
X_88_3                        1.000000
X_89_10                       1.000000
X_90_1                        1.000000
X_91_7                        1.000000
X_92_8                        1.000000
X_93_7                        1.000000
X_94_10                       1.000000
X_95_7                        1.000000
X_96_8                        1.000000
X_97_3                        1.000000
X_98_5                        1.000000
X_99_8                        1.000000
X_100_1                       1.000000
X_101_5                       1.000000
X_102_2                       1.000000
X_103_9                       1.000000
X_104_3                       1.000000
X_105_1                       1.000000
X_106_5                       1.000000
X_107_8                       1.000000
X_108_3                       1.000000
X_109_8                       1.000000
X_110_6                       1.000000
X_111_7                       1.000000
X_112_6                       1.000000
X_113_9                       1.000000
X_114_9                       1.000000
X_115_9                       1.000000
X_116_9                       1.000000
X_117_10                      1.000000
X_118_8                       1.000000
X_119_7                       1.000000
X_120_1                       1.000000
X_121_3                       1.000000
X_122_5                       1.000000
X_123_8                       1.000000
X_124_3                       1.000000
X_125_6                       1.000000
X_126_10                      1.000000
X_127_7                       1.000000
X_128_10                      1.000000
X_129_7                       1.000000
X_130_9                       1.000000
X_131_8                       1.000000
X_132_5                       1.000000
X_133_7                       1.000000
X_134_4                       1.000000
X_135_5                       1.000000
X_136_7                       1.000000
X_137_3                       1.000000
X_138_4                       1.000000
X_139_5                       1.000000
X_140_6                       1.000000
X_141_1                       1.000000
X_142_3                       1.000000
X_143_1                       1.000000
X_144_1                       1.000000
X_145_6                       1.000000
X_146_1                       1.000000
X_147_7                       1.000000
X_148_6                       1.000000
X_149_2                       1.000000
X_150_7                       1.000000
X_151_1                       1.000000
X_152_6                       1.000000
X_153_5                       1.000000
X_154_2                       1.000000
X_155_6                       1.000000
X_156_2                       1.000000
X_157_6                       1.000000
X_158_2                       1.000000
X_159_4                       1.000000
X_160_4                       1.000000
X_161_6                       1.000000
X_162_5                       1.000000
X_163_8                       1.000000
X_164_2                       1.000000
X_165_4                       1.000000
X_166_3                       1.000000
X_167_8                       1.000000
X_168_9                       1.000000
X_169_10                      1.000000
X_170_10                      1.000000
X_171_2                       1.000000
X_172_8                       1.000000
X_173_2                       1.000000
X_174_5                       1.000000
X_175_1                       1.000000
X_176_8                       1.000000
X_177_7                       1.000000
X_178_4                       1.000000
X_179_3                       1.000000
X_180_8                       1.000000
X_181_6                       1.000000
X_182_6                       1.000000
X_183_2                       1.000000
X_184_7                       1.000000
X_185_7                       1.000000
X_186_7                       1.000000
X_187_7                       1.000000
X_188_3                       1.000000
X_189_8                       1.000000
X_190_8                       1.000000
X_191_2                       1.000000
X_192_5                       1.000000
X_193_9                       1.000000
X_194_5                       1.000000
X_195_10                      1.000000
X_196_5                       1.000000
X_197_6                       1.000000
X_198_5                       1.000000
X_199_5                       1.000000
X_200_4                       1.000000
All other variables in the range 1-2001 are 0.
